c CNF file corresponding to a (partial) station packing problem.
p cnf 6496 222
1 2 3 4 5 6 7 8 9 10 11 12 13 14 0
-1 -2 0
-1 -3 0
-1 -4 0
-1 -5 0
-1 -6 0
-1 -7 0
-1 -8 0
-1 -9 0
-1 -10 0
-1 -11 0
-1 -12 0
-1 -13 0
-1 -14 0
-2 -3 0
-2 -4 0
-2 -5 0
-2 -6 0
-2 -7 0
-2 -8 0
-2 -9 0
-2 -10 0
-2 -11 0
-2 -12 0
-2 -13 0
-2 -14 0
-3 -4 0
-3 -5 0
-3 -6 0
-3 -7 0
-3 -8 0
-3 -9 0
-3 -10 0
-3 -11 0
-3 -12 0
-3 -13 0
-3 -14 0
-4 -5 0
-4 -6 0
-4 -7 0
-4 -8 0
-4 -9 0
-4 -10 0
-4 -11 0
-4 -12 0
-4 -13 0
-4 -14 0
-5 -6 0
-5 -7 0
-5 -8 0
-5 -9 0
-5 -10 0
-5 -11 0
-5 -12 0
-5 -13 0
-5 -14 0
-6 -7 0
-6 -8 0
-6 -9 0
-6 -10 0
-6 -11 0
-6 -12 0
-6 -13 0
-6 -14 0
-7 -8 0
-7 -9 0
-7 -10 0
-7 -11 0
-7 -12 0
-7 -13 0
-7 -14 0
-8 -9 0
-8 -10 0
-8 -11 0
-8 -12 0
-8 -13 0
-8 -14 0
-9 -10 0
-9 -11 0
-9 -12 0
-9 -13 0
-9 -14 0
-10 -11 0
-10 -12 0
-10 -13 0
-10 -14 0
-11 -12 0
-11 -13 0
-11 -14 0
-12 -13 0
-12 -14 0
-13 -14 0
-4 -6486 0
-6495 -12 0
-9 -6491 0
-6 -6491 0
-2 -6484 0
-6487 -4 0
-7 -6488 0
-5 -6485 0
-8 -6491 0
-6488 -9 0
-6496 -14 0
-6493 -11 0
-8 -6493 0
-10 -6492 0
-10 -6493 0
-6496 -12 0
-6486 -5 0
-7 -6486 0
-3 -6485 0
-6483 -2 0
-6489 -7 0
-8 -6490 0
-6494 -13 0
-11 -6492 0
-6487 -3 0
-1 -6483 0
-6487 -5 0
-6495 -10 0
-6489 -6 0
-13 -6492 0
-6490 -11 0
-6495 -13 0
-14 -6494 0
-12 -6494 0
-6489 -4 0
-6488 -6 0
-1 -6484 0
-6490 -9 0
6483 6484 6485 6486 6487 6488 6489 6490 6491 6492 6493 6494 6495 6496 0
-6483 -6484 0
-6483 -6485 0
-6483 -6486 0
-6483 -6487 0
-6483 -6488 0
-6483 -6489 0
-6483 -6490 0
-6483 -6491 0
-6483 -6492 0
-6483 -6493 0
-6483 -6494 0
-6483 -6495 0
-6483 -6496 0
-6484 -6485 0
-6484 -6486 0
-6484 -6487 0
-6484 -6488 0
-6484 -6489 0
-6484 -6490 0
-6484 -6491 0
-6484 -6492 0
-6484 -6493 0
-6484 -6494 0
-6484 -6495 0
-6484 -6496 0
-6485 -6486 0
-6485 -6487 0
-6485 -6488 0
-6485 -6489 0
-6485 -6490 0
-6485 -6491 0
-6485 -6492 0
-6485 -6493 0
-6485 -6494 0
-6485 -6495 0
-6485 -6496 0
-6486 -6487 0
-6486 -6488 0
-6486 -6489 0
-6486 -6490 0
-6486 -6491 0
-6486 -6492 0
-6486 -6493 0
-6486 -6494 0
-6486 -6495 0
-6486 -6496 0
-6487 -6488 0
-6487 -6489 0
-6487 -6490 0
-6487 -6491 0
-6487 -6492 0
-6487 -6493 0
-6487 -6494 0
-6487 -6495 0
-6487 -6496 0
-6488 -6489 0
-6488 -6490 0
-6488 -6491 0
-6488 -6492 0
-6488 -6493 0
-6488 -6494 0
-6488 -6495 0
-6488 -6496 0
-6489 -6490 0
-6489 -6491 0
-6489 -6492 0
-6489 -6493 0
-6489 -6494 0
-6489 -6495 0
-6489 -6496 0
-6490 -6491 0
-6490 -6492 0
-6490 -6493 0
-6490 -6494 0
-6490 -6495 0
-6490 -6496 0
-6491 -6492 0
-6491 -6493 0
-6491 -6494 0
-6491 -6495 0
-6491 -6496 0
-6492 -6493 0
-6492 -6494 0
-6492 -6495 0
-6492 -6496 0
-6493 -6494 0
-6493 -6495 0
-6493 -6496 0
-6494 -6495 0
-6494 -6496 0
-6495 -6496 0
